poligono.sol

Gurobi Optimizer version 7.0.2 build v7.0.2rc1 (win64)
Copyright (c) 2017, Gurobi Optimization, Inc.

Read LP format model from file poligono.lp
Reading time = 0.00 seconds
: 36 rows, 15 columns, 90 nonzeros
Optimize a model with 36 rows, 15 columns and 90 nonzeros
Variable types: 0 continuous, 15 integer (15 binary)
Coefficient statistics:
  Matrix range     [1e+00, 1e+00]
  Objective range  [3e+00, 6e+00]
  Bounds range     [1e+00, 1e+00]
  RHS range        [1e+00, 1e+00]
Found heuristic solution: objective 9.03299
Presolve removed 29 rows and 6 columns
Presolve time: 0.00s
Presolved: 7 rows, 9 columns, 21 nonzeros
Variable types: 0 continuous, 9 integer (9 binary)

Root relaxation: objective 1.216552e+01, 4 iterations, 0.00 seconds

    Nodes    |    Current Node    |     Objective Bounds      |     Work
 Expl Unexpl |  Obj  Depth IntInf | Incumbent    BestBd   Gap | It/Node Time

*    0     0               0      12.1655200   12.16552  0.00%     -    0s

Explored 0 nodes (4 simplex iterations) in 0.02 seconds
Thread count was 8 (of 8 available processors)

Solution count 2: 12.1655 9.03299 
Pool objective bound 12.1655

Optimal solution found (tolerance 1.00e-04)
Best objective 1.216552000000e+01, best bound 1.216552000000e+01, gap 0.0000%
